p cnf 36 100
a 31 23 0
e 1 2 3 4 5 6 7 8 9 10 11 12 13 14 15 16 17 18 19 20 21 22 24 25 26 27 28 29 30 32 33 34 35 36 0
2 -1 0
2 -1 0
1 -2 0
-4 -2 0
-4 -3 0
2 3 4 0
6 2 0
6 -5 0
-2 5 -6 0
7 5 0
7 6 0
-5 -6 -7 0
-9 7 0
-9 -8 0
-7 8 9 0
4 9 -10 0
-4 -9 -10 0
4 -9 10 0
-4 9 10 0
12 -2 0
12 -6 0
2 6 -12 0
-13 1 0
-13 12 0
-1 -12 13 0
-11 -13 -14 0
11 13 -14 0
-11 13 14 0
11 -13 14 0
10 -14 -15 0
-10 14 -15 0
10 14 15 0
-10 -14 15 0
-18 -16 0
-18 -17 0
16 17 18 0
-19 -6 0
-19 -12 0
6 12 19 0
20 -18 0
20 -19 0
18 19 -20 0
22 8 0
22 -21 0
-8 21 -22 0
-23 6 0
-23 -12 0
-6 12 23 0
-24 21 0
-24 23 0
-21 -23 24 0
25 22 0
25 24 0
-22 -24 -25 0
-26 21 0
-26 16 0
-21 -16 26 0
-17 -6 -27 0
17 6 -27 0
-17 6 27 0
17 -6 27 0
28 23 0
28 27 0
-23 -27 -28 0
29 26 0
29 -28 0
-26 28 -29 0
-30 -2 0
-30 -1 0
2 1 30 0
31 29 0
31 30 0
-29 -30 -31 0
-32 25 0
-32 31 0
-25 -31 32 0
-27 -4 -33 0
27 4 -33 0
-27 4 33 0
27 -4 33 0
-34 -32 0
-34 -33 0
32 33 34 0
-20 -34 -35 0
20 34 -35 0
-20 34 35 0
20 -34 35 0
36 -15 0
36 35 0
15 -35 -36 0
-29 -36 -28 -14 31 30 0
-35 15 -12 17 -24 -7 0
-10 35 -16 -23 0
-36 21 2 35 0
-34 15 -36 11 -20 0
24 -26 -13 -8 0
17 19 1 0
-7 -17 11 0
18 -33 -13 23 -30 0
36 0
